f:0
solution:
64 9 6 11 0 21 2 23 12 73 8 15 76 5 78 7 18 49 26 27 52 17 86 19 28 24 30 31 60 13 22 63 36 97 50 3 38 39 34 47 104 43 40 107 46 37 44 111 32 33 48 35 20 55 62 119 58 25 42 57 61 29 54 59 65 1 74 66 4 85 71 70 88 105 10 79 77 93 14 75 16 80 83 67 68 69 82 95 72 81 94 89 84 92 90 87 98 101 106 115 96 100 118 102 120 41 110 99 124 45 108 103 114 121 112 51 117 53 116 127 56 113 126 91 125 109 122 123 